solutions/Insertion/cheapest/E-n76-k14.txt
[[[75], [75, 68], [75, 6, 68], [75, 6, 2, 68], [75, 6, 2, 30, 68], [75, 6, 2, 30, 68]], [[67], [67, 26], [67, 26, 4], [67, 26, 4, 34], [67, 26, 4, 34]], [[17], [17, 51], [17, 51, 40], [17, 51, 40, 12], [17, 51, 3, 40, 12], [17, 51, 3, 40, 12]], [[46], [46, 52], [46, 52, 8], [46, 52, 8, 35], [46, 52, 8, 35, 7], [46, 52, 8, 35, 7]], [[45], [45, 27], [45, 27, 29], [45, 27, 29, 48], [45, 27, 29, 48, 5], [45, 27, 29, 48, 5, 15], [45, 27, 29, 48, 5, 15]], [[33], [33, 73], [33, 73, 1], [33, 73, 1, 63], [33, 73, 1, 63, 16], [33, 73, 1, 63, 16, 49], [33, 73, 1, 63, 16, 49, 23], [33, 73, 1, 63, 16, 49, 23]], [[58], [58, 72], [58, 72, 10], [58, 72, 10, 38], [58, 72, 10, 38, 65], [58, 72, 10, 38, 65]], [[74], [74, 28], [74, 28, 62], [74, 28, 62, 21], [74, 28, 62, 21]], [[44], [44, 32], [44, 32, 50], [44, 32, 50, 18], [44, 32, 50, 18, 25], [44, 32, 50, 18, 25]], [[39], [39, 9], [39, 9, 31], [39, 9, 31, 55], [39, 9, 31, 55, 53], [39, 9, 31, 55, 53]], [[13], [13, 54], [13, 54, 19], [13, 54, 19, 57], [13, 54, 19, 57, 37], [13, 54, 19, 57, 37, 20], [13, 54, 19, 57, 37, 20]], [[47], [47, 36], [47, 36, 69], [47, 36, 69, 71], [47, 36, 69, 71, 60], [47, 36, 69, 71, 60, 70], [47, 36, 69, 71, 60, 70, 61], [47, 36, 69, 71, 60, 70, 61, 22], [47, 36, 69, 71, 60, 70, 61, 22]], [[14], [14, 11], [14, 11]], [[43], [43, 41], [43, 41, 42], [43, 41, 42, 64], [43, 41, 42, 64, 56], [43, 41, 42, 64, 56]], [[24], [24, 66], [24, 59, 66], [24, 59, 66]]]