solutions/Insertion/cheapest/E-n76-k14.sol
Route #1: 75 6 2 30 68
Route #2: 67 26 4 34
Route #3: 17 51 3 40 12
Route #4: 46 52 8 35 7
Route #5: 45 27 29 48 5 15
Route #6: 33 73 1 63 16 49 23
Route #7: 58 72 10 38 65
Route #8: 74 28 62 21
Route #9: 44 32 50 18 25
Route #10: 39 9 31 55 53
Route #11: 13 54 19 57 37 20
Route #12: 47 36 69 71 60 70 61 22
Route #13: 14 11
Route #14: 43 41 42 64 56
Route #15: 24 59 66
cost: 1295
